/*********************************************
 * OPL 12.9.0.0 Data
 * Author: jfb2444
 * Creation Date: Aug 22, 2020 at 11:56:47 AM
 *********************************************/

 n = 8;							
 visNorth	= [3,4,1,2,3,4,-1,-1]; 	
 visSouth 	= [2,-1,3,-1,-1,3,-1,4]; 	
 visWest	= [-1,-1,6,2,4,-1,-1,-1]; 	
 visEast	= [2,-1,-1,-1,-1,5,-1,3]; 	
 cellClue 	= [	[1,-1,-1,-1,-1,-1,-1,-1],
 				[-1,-1,-1,-1,-1,-1,-1,2],
 				[-1,-1,-1,5,-1,-1,-1,-1],
 				[-1,-1,2,-1,8,-1,-1,-1],
 				[-1,-1,-1,-1,-1,-1,-1,-1],
 				[-1,2,-1,-1,4,-1,-1,-1],
 				[-1,-1,-1,-1,-1,5,-1,-1],
 				[-1,-1,-1,-1,-1,-1,1,3] ]; 	